% demand
num_movements = 42;
loading_factor = [850, 1400, 950, 1350, 1600, 1650, 1650, 1050, 950, 900, 1250, 800, 1600, 1750, 1250, 1500, 2000, 1900, 850, 1400, 800, 1100, 850, 1150, 2000, 1850, 900, 850, 1600, 1300, 1900, 1700, 900, 1900, 1300, 1050, 1650, 1400, 1650, 1800, 1750, 800];
pickup_time = [0, 0, 0, 0, 0, 0, 0, 1, 1, 1, 1, 1, 1, 1, 2, 4, 4, 4, 4, 4, 4, 5, 5, 5, 5, 7, 7, 7, 7, 7, 7, 7, 7, 9, 9, 9, 9, 10, 10, 10, 10, 10];
delivery_time = [2, 1, 7, 1, 1, 1, 1, 4, 4, 2, 2, 2, 5, 2, 3, 5, 6, 5, 6, 5, 5, 6, 6, 6, 6, 8, 8, 9, 9, 9, 8, 8, 9, 11, 10, 10, 10, 11, 11, 11, 11, 11];

% transporter definition
total_capacity = 11000;
num_decks = 4;
capacity = [3000, 3000, 1000, 4000];

% ways out of decks
num_ways_out = 2;
paths_out = array3d(decks, ways_out, decks, [
% ways out of deck d1
2, 4, 0, 0, 3, 4, 0, 0, 

% ways out of deck d2
4, 0, 0, 0, 0, 0, 0, 0,	

% ways out of deck d3
4, 0, 0, 0, 0, 0, 0, 0,	

% ways out of deck d4
0, 0, 0, 0,	0, 0, 0, 0,	

]);

